Route 1: 2 118 28 10 22 61 56 129 125 135 149 110 3 83 31
Route 2: 158 113 88 5 102 152 58 132 33 17 6 72 38 7 50
Route 3: 11 120 136 145 106 127 122 144 139 150 90 78 162 18 140
Route 4: 70 43 76 8 35 23 68 63 115 103 141 155 112 117 21 80
Route 5: 96 130 97 89 143 44 124 57 67 95 37 101 107 32 36
Route 6: 133 41 119 160 148 86 111 154 161 85 123 134 108 15 98
Route 7: 84 105 64 114 71 66 13 52 34 4 65 19 20 45
Route 8: 51 137 153 46 151 91 54 81
Route 9: 55 9 53 79 47 62 42 77 48 99 26 128 16 30 73 60
Route 10: 87 100 131 59 69 49 12 39 74 25 14 24 27 29 146
Route 11: 92 75 82 159 121 138 40 147 109 94 104 126 93 156 157 116 142
Cost 16538.27
